p cnf 155 400
a 31 34 38 47 53 60 2 4 10 12 23 25 109 120 131 147 1 9 18 22 0
d 92 1 9 0
d 123 18 22 0
d 3 2 0
d 5 4 0
d 6 2 4 0
d 7 1 2 4 0
d 8 1 2 4 0
d 11 10 0
d 13 12 0
d 14 10 12 0
d 15 9 10 12 0
d 16 9 10 12 0
d 17 1 2 4 9 10 12 0
d 19 18 10 12 0
d 20 18 10 12 0
d 21 1 2 4 9 10 12 18 0
d 24 23 0
d 26 25 0
d 27 23 25 0
d 28 22 23 25 0
d 29 22 23 25 0
d 30 1 2 4 9 10 12 18 22 23 25 0
d 32 31 0
d 33 31 0
d 35 31 34 0
d 36 31 34 0
d 37 31 34 0
d 39 38 31 0
d 40 34 0
d 41 38 31 34 0
d 42 38 31 34 0
d 43 31 34 38 0
d 44 31 34 0
d 45 38 0
d 46 31 34 38 0
d 48 31 34 38 47 0
d 49 31 34 38 47 0
d 50 31 34 38 47 0
d 51 47 0
d 52 38 47 0
d 54 53 31 0
d 55 53 31 34 0
d 56 38 47 53 31 34 0
d 57 38 47 53 31 34 0
d 58 31 34 38 47 53 0
d 59 53 0
d 61 53 60 0
d 62 31 34 38 47 0
d 63 53 60 31 34 38 47 0
d 64 53 60 31 34 38 47 0
d 65 31 34 38 47 53 60 0
d 66 2 31 0
d 67 2 31 34 0
d 68 38 47 53 0
d 69 60 0
d 70 38 47 53 60 0
d 71 2 31 34 38 47 53 60 0
d 72 2 31 34 38 47 53 60 0
d 73 31 34 38 47 53 60 2 0
d 74 53 60 0
d 75 53 60 2 0
d 76 53 60 2 4 0
d 77 31 34 38 47 53 60 2 4 0
d 78 31 34 38 47 53 60 2 4 0
d 79 31 34 38 47 53 60 2 4 0
d 80 10 31 0
d 81 10 31 34 0
d 82 2 4 10 31 34 0
d 83 38 47 53 60 2 4 10 31 34 0
d 84 38 47 53 60 2 4 10 31 34 0
d 85 31 34 38 47 53 60 2 4 10 0
d 86 53 60 2 4 0
d 87 10 12 0
d 88 10 12 31 34 38 47 0
d 89 53 60 2 4 10 12 31 34 38 47 0
d 90 53 60 2 4 10 12 31 34 38 47 0
d 91 31 34 38 47 53 60 2 4 10 12 0
d 93 23 31 0
d 94 23 31 34 0
d 95 23 31 34 38 47 53 60 0
d 96 1 9 23 31 34 38 47 53 60 0
d 97 1 9 23 31 34 38 47 53 60 0
d 98 2 4 10 0
d 99 2 4 10 12 0
d 100 2 4 10 12 23 31 34 38 47 53 60 0
d 101 1 9 23 31 34 38 47 53 60 2 4 10 12 0
d 102 31 34 38 47 53 60 2 4 10 12 1 9 23 0
d 103 10 12 23 0
d 104 10 12 23 25 0
d 105 31 34 38 47 53 60 2 4 0
d 106 10 12 23 25 31 34 38 47 53 60 2 4 0
d 107 10 12 23 25 31 34 38 47 53 60 2 4 0
d 108 31 34 38 47 53 60 2 4 10 12 1 9 23 25 0
d 110 109 31 0
d 111 109 31 34 0
d 112 23 25 109 31 34 0
d 113 38 47 53 60 1 9 0
d 114 23 25 109 31 34 38 47 53 60 1 9 0
d 115 38 47 53 60 2 4 10 12 0
d 116 23 25 109 31 34 38 47 53 60 2 4 10 12 0
d 117 23 25 109 31 34 38 47 53 60 1 9 2 4 10 12 0
d 118 31 34 38 47 53 60 2 4 10 12 1 9 23 25 109 0
d 119 109 0
d 121 109 120 0
d 122 109 120 31 34 38 47 0
d 124 53 60 2 4 18 22 0
d 125 109 120 31 34 38 47 53 60 2 4 18 22 0
d 126 10 12 23 25 0
d 127 53 60 2 4 10 12 23 25 0
d 128 109 120 31 34 38 47 53 60 2 4 10 12 23 25 0
d 129 109 120 31 34 38 47 53 60 2 4 18 22 10 12 23 25 0
d 130 31 34 38 47 53 60 2 4 10 12 1 9 23 25 109 120 18 22 0
d 132 131 31 0
d 133 131 31 34 0
d 134 131 31 34 38 47 53 60 0
d 135 23 25 109 0
d 136 120 0
d 137 23 25 109 120 0
d 138 1 9 23 25 109 120 0
d 139 131 31 34 38 47 53 60 1 9 23 25 109 120 0
d 140 2 4 10 12 23 25 109 120 0
d 141 131 31 34 38 47 53 60 2 4 10 12 23 25 109 120 0
d 142 131 31 34 38 47 53 60 1 9 23 25 109 120 2 4 10 12 0
d 143 31 34 38 47 53 60 2 4 10 12 1 9 23 25 109 120 18 22 131 0
d 144 109 120 0
d 145 131 0
d 146 109 120 131 0
d 148 109 120 131 147 0
d 149 18 22 109 120 131 147 0
d 150 31 34 38 47 53 60 2 4 18 22 109 120 131 147 0
d 151 10 12 23 25 109 120 131 147 0
d 152 31 34 38 47 53 60 2 4 10 12 23 25 109 120 131 147 0
d 153 31 34 38 47 53 60 2 4 18 22 109 120 131 147 10 12 23 25 0
d 154 31 34 38 47 53 60 2 4 10 12 1 9 23 25 109 120 18 22 131 147 0
d 155 1 2 4 9 10 12 18 22 23 25 31 34 38 47 53 60 109 120 131 147 0
3 2 0
-3 -2 0
5 4 0
-5 -4 0
-6 3 0
-6 5 0
6 -3 -5 0
7 -1 -6 0
7 1 6 0
-7 -1 6 0
-7 1 -6 0
8 7 0
-8 -7 0
11 10 0
-11 -10 0
13 12 0
-13 -12 0
-14 11 0
-14 13 0
14 -11 -13 0
15 -9 -14 0
15 9 14 0
-15 -9 14 0
-15 9 -14 0
16 15 0
-16 -15 0
17 -8 0
17 -16 0
-17 8 16 0
19 -18 -14 0
19 18 14 0
-19 -18 14 0
-19 18 -14 0
20 19 0
-20 -19 0
21 -17 0
21 -20 0
-21 17 20 0
24 23 0
-24 -23 0
26 25 0
-26 -25 0
-27 24 0
-27 26 0
27 -24 -26 0
28 -22 -27 0
28 22 27 0
-28 -22 27 0
-28 22 -27 0
29 28 0
-29 -28 0
30 -21 0
30 -29 0
-30 21 29 0
32 -31 -31 0
32 31 31 0
-32 -31 31 0
-32 31 -31 0
33 31 0
-33 -31 0
-35 33 0
-35 34 0
35 -33 -34 0
36 -35 -35 0
36 35 35 0
-36 -35 35 0
-36 35 -35 0
-37 32 0
-37 36 0
37 -32 -36 0
-39 38 0
-39 33 0
39 -38 -33 0
40 34 0
-40 -34 0
-41 39 0
-41 40 0
41 -39 -40 0
42 -41 -41 0
42 41 41 0
-42 -41 41 0
-42 41 -41 0
-43 37 0
-43 42 0
43 -37 -42 0
-44 33 0
-44 40 0
44 -33 -40 0
45 38 0
-45 -38 0
-46 44 0
-46 45 0
46 -44 -45 0
-48 46 0
-48 47 0
48 -46 -47 0
49 -48 -48 0
49 48 48 0
-49 -48 48 0
-49 48 -48 0
-50 43 0
-50 49 0
50 -43 -49 0
51 47 0
-51 -47 0
-52 45 0
-52 51 0
52 -45 -51 0
-54 53 0
-54 33 0
54 -53 -33 0
-55 54 0
-55 40 0
55 -54 -40 0
-56 52 0
-56 55 0
56 -52 -55 0
57 -56 -56 0
57 56 56 0
-57 -56 56 0
-57 56 -56 0
-58 50 0
-58 57 0
58 -50 -57 0
59 53 0
-59 -53 0
-61 59 0
-61 60 0
61 -59 -60 0
-62 46 0
-62 51 0
62 -46 -51 0
-63 61 0
-63 62 0
63 -61 -62 0
64 -63 -63 0
64 63 63 0
-64 -63 63 0
-64 63 -63 0
-65 58 0
-65 64 0
65 -58 -64 0
-66 2 0
-66 33 0
66 -2 -33 0
-67 66 0
-67 40 0
67 -66 -40 0
-68 52 0
-68 59 0
68 -52 -59 0
69 60 0
-69 -60 0
-70 68 0
-70 69 0
70 -68 -69 0
-71 67 0
-71 70 0
71 -67 -70 0
72 -71 -71 0
72 71 71 0
-72 -71 71 0
-72 71 -71 0
-73 65 0
-73 72 0
73 -65 -72 0
-74 59 0
-74 69 0
74 -59 -69 0
-75 74 0
-75 3 0
75 -74 -3 0
-76 75 0
-76 4 0
76 -75 -4 0
-77 62 0
-77 76 0
77 -62 -76 0
78 -77 -77 0
78 77 77 0
-78 -77 77 0
-78 77 -77 0
-79 73 0
-79 78 0
79 -73 -78 0
-80 10 0
-80 33 0
80 -10 -33 0
-81 80 0
-81 40 0
81 -80 -40 0
-82 6 0
-82 81 0
82 -6 -81 0
-83 70 0
-83 82 0
83 -70 -82 0
84 -83 -83 0
84 83 83 0
-84 -83 83 0
-84 83 -83 0
-85 79 0
-85 84 0
85 -79 -84 0
-86 75 0
-86 5 0
86 -75 -5 0
-87 11 0
-87 12 0
87 -11 -12 0
-88 87 0
-88 62 0
88 -87 -62 0
-89 86 0
-89 88 0
89 -86 -88 0
90 -89 -89 0
90 89 89 0
-90 -89 89 0
-90 89 -89 0
-91 85 0
-91 90 0
91 -85 -90 0
-93 23 0
-93 33 0
93 -23 -33 0
-94 93 0
-94 40 0
94 -93 -40 0
-95 94 0
-95 70 0
95 -94 -70 0
96 -92 0
96 -95 0
-96 92 95 0
97 96 0
-97 -96 0
-98 6 0
-98 11 0
98 -6 -11 0
-99 98 0
-99 13 0
99 -98 -13 0
-100 99 0
-100 95 0
100 -99 -95 0
101 -97 -100 0
101 97 100 0
-101 -97 100 0
-101 97 -100 0
-102 91 0
-102 101 0
102 -91 -101 0
-103 14 0
-103 24 0
103 -14 -24 0
-104 103 0
-104 25 0
104 -103 -25 0
-105 62 0
-105 86 0
105 -62 -86 0
-106 104 0
-106 105 0
106 -104 -105 0
107 -106 -106 0
107 106 106 0
-107 -106 106 0
-107 106 -106 0
-108 102 0
-108 107 0
108 -102 -107 0
-110 109 0
-110 33 0
110 -109 -33 0
-111 110 0
-111 40 0
111 -110 -40 0
-112 27 0
-112 111 0
112 -27 -111 0
-113 70 0
-113 92 0
113 -70 -92 0
-114 112 0
-114 113 0
114 -112 -113 0
-115 70 0
-115 99 0
115 -70 -99 0
-116 112 0
-116 115 0
116 -112 -115 0
117 -114 -116 0
117 114 116 0
-117 -114 116 0
-117 114 -116 0
-118 108 0
-118 117 0
118 -108 -117 0
119 109 0
-119 -109 0
-121 119 0
-121 120 0
121 -119 -120 0
-122 121 0
-122 62 0
122 -121 -62 0
-124 86 0
-124 123 0
124 -86 -123 0
-125 122 0
-125 124 0
125 -122 -124 0
-126 103 0
-126 26 0
126 -103 -26 0
-127 86 0
-127 126 0
127 -86 -126 0
-128 122 0
-128 127 0
128 -122 -127 0
129 -125 -128 0
129 125 128 0
-129 -125 128 0
-129 125 -128 0
-130 118 0
-130 129 0
130 -118 -129 0
-132 131 0
-132 33 0
132 -131 -33 0
-133 132 0
-133 40 0
133 -132 -40 0
-134 133 0
-134 70 0
134 -133 -70 0
-135 27 0
-135 119 0
135 -27 -119 0
136 120 0
-136 -120 0
-137 135 0
-137 136 0
137 -135 -136 0
-138 92 0
-138 137 0
138 -92 -137 0
-139 134 0
-139 138 0
139 -134 -138 0
-140 99 0
-140 137 0
140 -99 -137 0
-141 134 0
-141 140 0
141 -134 -140 0
142 -139 -141 0
142 139 141 0
-142 -139 141 0
-142 139 -141 0
-143 130 0
-143 142 0
143 -130 -142 0
-144 119 0
-144 136 0
144 -119 -136 0
145 131 0
-145 -131 0
-146 144 0
-146 145 0
146 -144 -145 0
-148 146 0
-148 147 0
148 -146 -147 0
-149 123 0
-149 148 0
149 -123 -148 0
-150 105 0
-150 149 0
150 -105 -149 0
-151 126 0
-151 148 0
151 -126 -148 0
-152 105 0
-152 151 0
152 -105 -151 0
153 -150 -152 0
153 150 152 0
-153 -150 152 0
-153 150 -152 0
-154 143 0
-154 153 0
154 -143 -153 0
155 -30 0
155 -154 0
-155 30 154 0
155 0
